swarm_exploration/utils/lkh_mtsp_solver/resource/amtsp2_3.atsp
NAME : amtsp
TYPE : ATSP
DIMENSION : 5
EDGE_WEIGHT_TYPE : EXPLICIT
EDGE_WEIGHT_FORMAT : FULL_MATRIX
EDGE_WEIGHT_SECTION
100000 -100000 100000 100000 100000 
100000 100000 195 1786 2093 
0 0 100000 505 706 
0 0 505 100000 466 
0 0 706 466 100000 
